83 5 61 85 59 99 94 6 
31 62 19 47 36 49 46 48 89 
2 15 42 16 86 91 100 37 93 60 
28 76 33 81 9 51 50 
12 29 78 79 3 77 68 
39 67 23 75 74 26 
52 82 8 45 84 17 96 
40 73 41 22 56 4 
53 
18 7 88 10 70 
11 64 63 90 32 20 66 1 
21 72 25 55 54 
27 69 30 71 65 35 34 24 80 
95 92 98 44 38 14 43 97 13 
87 57 58 
